unsat
(forall ((A (_ BitVec 20))
         (B (_ BitVec 20))
         (C (_ BitVec 20))
         (D (_ BitVec 20))
         (E (_ BitVec 20))
         (F (_ BitVec 20))
         (G (_ BitVec 20))
         (H (_ BitVec 20))
         (I (_ BitVec 20))
         (J (_ BitVec 20))
         (K (_ BitVec 20))
         (L (_ BitVec 20))
         (M (_ BitVec 20))
         (N (_ BitVec 20))
         (O (_ BitVec 20))
         (P (_ BitVec 20))
         (Q (_ BitVec 20))
         (R (_ BitVec 20))
         (S (_ BitVec 20))
         (T (_ BitVec 1))
         (U (_ BitVec 20))
         (V (_ BitVec 18))
         (W (_ BitVec 20))
         (X (_ BitVec 18))
         (Y (_ BitVec 20))
         (Z (_ BitVec 20))
         (A1 (_ BitVec 38))
         (B1 (_ BitVec 1))
         (C1 (_ BitVec 20))
         (D1 (_ BitVec 20))
         (E1 (_ BitVec 17))
         (F1 (_ BitVec 1))
         (G1 (_ BitVec 20))
         (H1 (_ BitVec 20))
         (I1 (_ BitVec 17))
         (J1 (_ BitVec 20))
         (K1 (_ BitVec 20))
         (L1 (_ BitVec 20))
         (M1 (_ BitVec 20))
         (N1 (_ BitVec 1))
         (O1 (_ BitVec 20))
         (P1 (_ BitVec 38))
         (Q1 (_ BitVec 20))
         (R1 (_ BitVec 38))
         (S1 (_ BitVec 38))
         (T1 (_ BitVec 20))
         (U1 (_ BitVec 1))
         (V1 (_ BitVec 38))
         (W1 (_ BitVec 1))
         (X1 (_ BitVec 20))
         (Y1 (_ BitVec 20))
         (Z1 (_ BitVec 20))
         (A2 (_ BitVec 20))
         (B2 (_ BitVec 14))
         (C2 (_ BitVec 17))
         (D2 (_ BitVec 17))
         (E2 (_ BitVec 17))
         (F2 (_ BitVec 17))
         (G2 (_ BitVec 20))
         (H2 (_ BitVec 20))
         (I2 (_ BitVec 20))
         (J2 (_ BitVec 20))
         (K2 (_ BitVec 1))
         (L2 (_ BitVec 22))
         (M2 (_ BitVec 20))
         (N2 (_ BitVec 20))
         (O2 (_ BitVec 20))
         (P2 (_ BitVec 20))
         (Q2 (_ BitVec 1))
         (R2 (_ BitVec 38))
         (S2 (_ BitVec 17))
         (T2 (_ BitVec 14))
         (U2 (_ BitVec 22))
         (V2 (_ BitVec 14))
         (W2 (_ BitVec 22))
         (X2 (_ BitVec 14))
         (Y2 (_ BitVec 22))
         (Z2 (_ BitVec 14))
         (A3 (_ BitVec 22))
         (B3 (_ BitVec 14))
         (C3 (_ BitVec 38))
         (D3 (_ BitVec 22))
         (E3 (_ BitVec 22))
         (F3 (_ BitVec 20))
         (G3 (_ BitVec 16))
         (H3 (_ BitVec 38))
         (I3 (_ BitVec 30))
         (J3 (_ BitVec 30))
         (K3 (_ BitVec 20))
         (L3 (_ BitVec 20))
         (M3 (_ BitVec 1))
         (N3 (_ BitVec 1))
         (O3 (_ BitVec 20))
         (P3 (_ BitVec 20))
         (Q3 (_ BitVec 20))
         (R3 (_ BitVec 20))
         (S3 (_ BitVec 20))
         (T3 (_ BitVec 16))
         (U3 (_ BitVec 20))
         (V3 (_ BitVec 18))
         (W3 (_ BitVec 30))
         (X3 (_ BitVec 1))
         (Y3 (_ BitVec 38))
         (Z3 (_ BitVec 30)))
  (! (let ((a!1 (or (not (= N1 #b1))
                    (not ((_ bit2bool 2) O1))
                    (not ((_ bit2bool 2) L))
                    (not (= ((_ extract 2 2) Z1) #b1))))
           (a!2 (or (not (= N1 #b1)) (not (= ((_ extract 17 17) X) #b1))))
           (a!3 (or (not (= N1 #b1)) (not (= ((_ extract 17 17) V3) #b1))))
           (a!4 (= ((_ extract 25 8)
                     (bvadd (concat #x0 D3) ((_ extract 37 12) C3)))
                   #b000000000000000000))
           (a!5 (or ((_ bit2bool 2) V)
                    ((_ bit2bool 1) V3)
                    ((_ bit2bool 2) V3)
                    ((_ bit2bool 1) V)
                    (not (= ((_ extract 2 2) X) #b1))))
           (a!6 (or (not (= N1 #b1)) (not (= ((_ extract 17 17) V) #b1))))
           (a!7 (or (not ((_ bit2bool 0) V))
                    (not ((_ bit2bool 0) X))
                    (not (= ((_ extract 0 0) V3) #b1))))
           (a!8 (= ((_ extract 13 6)
                     (bvadd (concat #b0000000000 W2) ((_ extract 37 6) P1)))
                   ((_ extract 19 12) H2)))
           (a!9 (= ((_ extract 9 2)
                     (bvadd ((_ extract 37 10) R1) (concat #b000000 A3)))
                   ((_ extract 19 12) I2)))
           (a!10 (= ((_ extract 11 4)
                      (bvadd ((_ extract 37 8) A1) (concat #x00 Y2)))
                    ((_ extract 19 12) D1)))
           (a!11 ((_ extract 17 10)
                   (bvadd (concat #b0 E3) (concat #b000 ((_ extract 21 2) L2)))))
           (a!12 (= ((_ extract 19 12) G1)
                    ((_ extract 15 8)
                      (bvadd (concat #x000 U2) ((_ extract 37 4) V1)))))
           (a!13 (bvadd ((_ extract 33 4)
                          (bvadd (concat #x000 U2) ((_ extract 37 4) V1)))
                        (concat #b000000000 M2 #b0)))
           (a!14 (bvadd ((_ extract 31 2)
                          (bvadd (concat #b0000000000 W2) ((_ extract 37 6) P1)))
                        (concat #b000000000 O #b0)))
           (a!15 (= ((_ extract 31 14)
                      (bvadd (concat #b0000000000 W2) ((_ extract 37 6) P1)))
                    #b000000000000000000))
           (a!16 (= ((_ extract 27 10)
                      (bvadd ((_ extract 37 10) R1) (concat #b000000 A3)))
                    #b000000000000000000))
           (a!17 (= ((_ extract 29 12)
                      (bvadd ((_ extract 37 8) A1) (concat #x00 Y2)))
                    #b000000000000000000))
           (a!18 ((_ extract 22 18)
                   (bvadd (concat #b0 E3) (concat #b000 ((_ extract 21 2) L2)))))
           (a!19 (= ((_ extract 33 16)
                      (bvadd (concat #x000 U2) ((_ extract 37 4) V1)))
                    #b000000000000000000))
           (a!20 ((_ extract 9 2)
                   (bvadd (concat #b0 E3) (concat #b000 ((_ extract 21 2) L2)))))
           (a!22 (concat ((_ extract 7 2)
                           (bvadd (concat #x000 U2) ((_ extract 37 4) V1)))
                         (bvadd ((_ extract 5 4) V1) ((_ extract 1 0) U2))
                         ((_ extract 3 0) V1)))
           (a!23 (concat ((_ extract 5 2)
                           (bvadd (concat #b0000000000 W2)
                                  ((_ extract 37 6) P1)))
                         (bvadd ((_ extract 7 6) P1) ((_ extract 1 0) W2))
                         ((_ extract 5 0) P1)))
           (a!24 (concat ((_ extract 3 2)
                           (bvadd ((_ extract 37 8) A1) (concat #x00 Y2)))
                         (bvadd ((_ extract 9 8) A1) ((_ extract 1 0) Y2))
                         ((_ extract 7 0) A1)))
           (a!25 (= ((_ extract 11 0) I2)
                    (concat (bvadd ((_ extract 11 10) R1) ((_ extract 1 0) A3))
                            ((_ extract 9 0) R1)))))
     (let ((a!21 (= (concat a!20
                            (bvadd ((_ extract 1 0) E3) ((_ extract 3 2) L2))
                            ((_ extract 1 0) L2))
                    ((_ extract 11 0) G2))))
     (let ((a!26 (and (or (not (= T #b0)) (= F1 #b0))
                      (not ((_ bit2bool 0) B3))
                      (not ((_ bit2bool 1) B3))
                      (not ((_ bit2bool 9) T2))
                      (not ((_ bit2bool 8) T2))
                      (not ((_ bit2bool 7) T2))
                      (not ((_ bit2bool 6) T2))
                      (not ((_ bit2bool 5) T2))
                      (not ((_ bit2bool 4) T2))
                      (not ((_ bit2bool 3) T2))
                      (not ((_ bit2bool 2) T2))
                      (not ((_ bit2bool 1) T2))
                      (not ((_ bit2bool 0) T2))
                      a!1
                      a!2
                      (not ((_ bit2bool 5) V2))
                      (not ((_ bit2bool 1) Z2))
                      (not ((_ bit2bool 3) X2))
                      (not ((_ bit2bool 3) Z2))
                      (not ((_ bit2bool 2) Z2))
                      (not ((_ bit2bool 0) Z2))
                      (not ((_ bit2bool 4) X2))
                      (not ((_ bit2bool 6) V2))
                      a!3
                      (or ((_ bit2bool 0) O1)
                          (not ((_ bit2bool 0) L))
                          (= ((_ extract 0 0) Z1) #b1))
                      a!4
                      (not ((_ bit2bool 2) X2))
                      (not ((_ bit2bool 4) V2))
                      (or ((_ bit2bool 0) L)
                          ((_ bit2bool 0) O1)
                          (not ((_ bit2bool 0) Z1)))
                      (or (not (= L #x00000))
                          (not (= N1 #b1))
                          (not ((_ bit2bool 2) O1))
                          (= ((_ extract 2 2) Z1) #b1))
                      (not ((_ bit2bool 7) V2))
                      (not ((_ bit2bool 5) X2))
                      (or ((_ bit2bool 0) V3)
                          ((_ bit2bool 1) V3)
                          ((_ bit2bool 2) V3)
                          ((_ bit2bool 1) V)
                          (not ((_ bit2bool 1) X)))
                      a!5
                      a!6
                      a!7
                      a!8
                      a!9
                      a!10
                      (= a!11 ((_ extract 19 12) G2))
                      a!12
                      (or ((_ bit2bool 4) M2)
                          ((_ bit2bool 7) M2)
                          ((_ bit2bool 8) M2)
                          ((_ bit2bool 2) M2)
                          ((_ bit2bool 3) M2)
                          ((_ bit2bool 1) M2)
                          ((_ bit2bool 12) M2)
                          ((_ bit2bool 5) M2)
                          ((_ bit2bool 6) M2)
                          ((_ bit2bool 10) M2)
                          ((_ bit2bool 11) M2)
                          ((_ bit2bool 9) M2)
                          ((_ bit2bool 13) M2)
                          ((_ bit2bool 14) M2)
                          ((_ bit2bool 15) M2)
                          (= ((_ extract 0 0) M2) #b1)
                          (= ((_ extract 19 12) G1) ((_ extract 11 4) a!13)))
                      (or ((_ bit2bool 7) O)
                          ((_ bit2bool 8) O)
                          ((_ bit2bool 9) O)
                          ((_ bit2bool 6) O)
                          ((_ bit2bool 11) O)
                          ((_ bit2bool 0) O)
                          ((_ bit2bool 1) O)
                          ((_ bit2bool 2) O)
                          ((_ bit2bool 15) O)
                          ((_ bit2bool 12) O)
                          ((_ bit2bool 13) O)
                          ((_ bit2bool 14) O)
                          ((_ bit2bool 3) O)
                          ((_ bit2bool 4) O)
                          ((_ bit2bool 5) O)
                          ((_ bit2bool 10) O)
                          (= ((_ extract 19 12) H2) ((_ extract 11 4) a!14)))
                      (not ((_ bit2bool 0) V2))
                      (not ((_ bit2bool 2) V2))
                      (not ((_ bit2bool 0) X2))
                      (not ((_ bit2bool 1) V2))
                      (not ((_ bit2bool 1) X2))
                      (not ((_ bit2bool 3) V2))
                      (= ((_ extract 19 12) C1)
                         (bvadd ((_ extract 19 12) C3) ((_ extract 7 0) D3)))
                      a!15
                      a!16
                      a!17
                      (= a!18 #b00000)
                      a!19
                      (or (not (= C2 #b00000000000000001)) a!21)
                      (or (not (= D2 #b00000000000000001))
                          (= a!22 ((_ extract 11 0) G1)))
                      (or (not (= I1 #b00000000000000001))
                          (= ((_ extract 11 0) H2) a!23))
                      (or (not (= E2 #b00000000000000001))
                          (= a!24 ((_ extract 11 0) D1)))
                      (or (not (= E1 #b00000000000000001)) a!25)
                      (or (not (= F2 #b00000000000000001))
                          (= ((_ extract 11 0) C1) ((_ extract 11 0) C3)))
                      (or (not (= S2 #b00000000000000001))
                          (= S1 (concat #b000000000000000000 J2))))))
       (= (INV!slice!1 A
                       B
                       C
                       D
                       E
                       F
                       G
                       H
                       I
                       J
                       K
                       L
                       M
                       N
                       O
                       P
                       Q
                       R
                       S
                       T
                       U
                       V
                       W
                       X
                       Y
                       Z
                       A1
                       B1
                       C1
                       D1
                       E1
                       F1
                       G1
                       H1
                       I1
                       J1
                       K1
                       L1
                       M1
                       N1
                       O1
                       P1
                       Q1
                       R1
                       S1
                       T1
                       U1
                       V1
                       W1
                       X1
                       Y1
                       Z1
                       A2
                       B2
                       C2
                       D2
                       E2
                       F2
                       G2
                       H2
                       I2
                       J2
                       K2
                       L2
                       M2
                       N2
                       O2
                       P2
                       Q2
                       R2
                       S2
                       T2
                       U2
                       V2
                       W2
                       X2
                       Y2
                       Z2
                       A3
                       B3
                       C3
                       D3
                       E3
                       F3
                       G3
                       H3
                       I3
                       J3
                       K3
                       L3
                       M3
                       N3
                       O3
                       P3
                       Q3
                       R3
                       S3
                       T3
                       U3
                       V3
                       W3
                       X3
                       Y3
                       Z3)
          a!26))))
     :weight 0))
